100 8
836 859
172 720
797 602
446 244
162 190
371 119
775 645
203 719
226 501
485 620
447 751
170 635
751 353
99 446
442 262
288 231
398 140
321 36
211 350
517 545
296 763
782 810
537 540
947 816
878 752
360 243
858 598
953 882
324 393
886 879
153 456
296 377
583 633
288 409
337 722
341 122
319 189
340 66
323 493
797 784
296 708
387 600
88 276
771 572
19 293
743 424
364 627
813 502
293 755
953 936
821 871
912 834
297 202
305 207
112 658
253 284
211 631
380 599
201 354
271 184
821 504
915 343
130 808
120 512
564 642
187 352
839 670
30 210
767 427
840 684
775 778
425 506
506 408
769 834
202 805
733 853
857 767
234 384
103 316
472 724
655 625
266 262
330 223
339 629
255 440
855 669
471 701
153 402
188 534
912 852
287 455
365 246
799 699
773 391
376 211
859 618
367 204
167 370
343 302
187 734
